c colouring generated by benchmark framework
p edge 87 406
v 1 9
v 2 1
v 3 1
v 4 2
v 5 8
v 6 0
v 7 10
v 8 0
v 9 1
v 10 5
v 11 2
v 12 8
v 13 7
v 14 0
v 15 0
v 16 0
v 17 8
v 18 9
v 19 0
v 20 10
v 21 1
v 22 5
v 23 2
v 24 1
v 25 5
v 26 0
v 27 8
v 28 0
v 29 0
v 30 6
v 31 0
v 32 5
v 33 5
v 34 3
v 35 5
v 36 3
v 37 6
v 38 6
v 39 0
v 40 3
v 41 7
v 42 2
v 43 3
v 44 1
v 45 1
v 46 6
v 47 7
v 48 0
v 49 1
v 50 10
v 51 10
v 52 5
v 53 6
v 54 8
v 55 10
v 56 0
v 57 0
v 58 2
v 59 3
v 60 2
v 61 2
v 62 5
v 63 9
v 64 10
v 65 3
v 66 8
v 67 6
v 68 2
v 69 3
v 70 2
v 71 5
v 72 7
v 73 3
v 74 7
v 75 8
v 76 10
v 77 3
v 78 0
v 79 3
v 80 7
v 81 5
v 82 8
v 83 4
v 84 7
v 85 1
v 86 3
v 87 9
